(set-logic QF_S)
(declare-fun var_0xINPUT_55338 () String)
(assert (and (= (len var_0xINPUT_55338) 0) (= (len var_0xINPUT_55338) 0) (not (= var_0xINPUT_55338 "pVEECEXk2p"))))
(check-sat var_0xINPUT_55338)